(set-info :origin "SVCOMP13 benchmarks generated by Arie Gurfinkel")
(set-info :status unsat)
(set-logic HORN)
(declare-fun cp-rel-bb.i
             (Real
              Real
              Real
              Real
              Real
              Real
              Real
              Real
              Real
              Real
              Real
              Real
              Real
              Real
              Real
              Real
              Real
              Real
              Real
              Real
              Real)
             Bool)
(declare-fun cp-rel-entry () Bool)
(declare-fun cp-rel-__UFO__0
             (Real
              Real
              Real
              Real
              Real
              Real
              Real
              Real
              Real
              Real
              Real
              Real
              Real
              Real
              Real
              Real
              Real
              Real
              Real
              Real
              Real
              Real
              Real)
             Bool)
(declare-fun cp-rel-bb1.i.i.i.i52.i.i () Bool)
(assert |cp-rel-entry|)
(assert (forall ((?A Real) (?B Real) (?C Real) (?D Real) (?E Real) (?F Real) (?G Real) (?H Real) (?I Real) (?J Real) (?K Real) (?L Real) (?M Real) (?N Real) (?O Real) (?P Real) (?Q Real) (?R Real) (?S Real) (?T Real) (?U Real) (?V Bool) )(let (($x919595 (|cp-rel-bb.i| ?A ?B ?C ?D ?E ?F ?G ?H ?I ?J ?K ?L ?M ?N ?O ?P ?Q ?R ?S ?T ?U)))
(let (($x399401 (= ?V true)))
(let (($x144415 (<= ?B 0.0)))
(let (($x375320 (>= ?B 0.0)))
(let (($x251926 (and |cp-rel-entry| (<= ?U 0.0) (>= ?T 0.0) (<= ?T 0.0) (>= ?S 0.0) (<= ?S 0.0) (>= ?R 0.0) (<= ?R 0.0) (>= ?Q 0.0) (<= ?Q 0.0) (>= ?P 0.0) (<= ?P 0.0) (>= ?O 0.0) (<= ?O 0.0) (>= ?N 0.0) (<= ?N 0.0) (>= ?M 0.0) (<= ?M 0.0) (>= ?L 456.0) (<= ?L 456.0) (>= ?K 123.0) (<= ?K 123.0) (>= ?J 0.0) (<= ?J 0.0) (>= ?I 0.0) (<= ?I 0.0) (>= ?H 0.0) (<= ?H 0.0) (>= ?G 0.0) (<= ?G 0.0) (>= ?F 0.0) (<= ?F 0.0) (>= ?E 0.0) (<= ?E 0.0) (>= ?D 0.0) (<= ?D 0.0) (>= ?C 0.0) (<= ?C 0.0) $x375320 $x144415 (>= ?A 0.0) (<= ?A 0.0) $x399401 (>= ?U 0.0))))
(=> $x251926 $x919595)))))))
)
(assert (forall ((?A Real) (?B Real) (?C Real) (?D Real) (?E Real) (?F Real) (?G Real) (?H Real) (?I Real) (?J Real) (?K Real) (?L Real) (?M Real) (?N Real) (?O Real) (?P Real) (?Q Real) (?R Real) (?S Real) (?T Real) (?U Real) (?V Real) (?W Real) (?X Real) (?Y Real) (?Z Real) (?A1 Real) (?B1 Real) (?C1 Real) (?D1 Real) (?E1 Real) (?F1 Real) (?G1 Real) (?H1 Real) (?I1 Real) (?J1 Real) (?K1 Real) (?L1 Real) (?M1 Real) (?N1 Real) (?O1 Real) (?P1 Real) (?Q1 Bool) (?R1 Bool) (?S1 Bool) (?T1 Bool) (?U1 Bool) (?V1 Bool) (?W1 Bool) (?X1 Bool) (?Y1 Bool) (?Z1 Bool) (?A2 Bool) (?B2 Bool) (?C2 Bool) (?D2 Bool) (?E2 Bool) (?F2 Bool) (?G2 Bool) (?H2 Bool) (?I2 Bool) (?J2 Bool) (?K2 Bool) (?L2 Bool) (?M2 Bool) (?N2 Bool) (?O2 Bool) (?P2 Bool) (?Q2 Bool) (?R2 Bool) (?S2 Bool) (?T2 Bool) (?U2 Bool) (?V2 Bool) (?W2 Bool) (?X2 Bool) (?Y2 Bool) (?Z2 Bool) (?A3 Bool) (?B3 Bool) (?C3 Bool) (?D3 Bool) (?E3 Bool) (?F3 Bool) (?G3 Bool) (?H3 Bool) (?I3 Bool) (?J3 Bool) (?K3 Bool) (?L3 Bool) (?M3 Bool) (?N3 Bool) (?O3 Bool) (?P3 Bool) (?Q3 Bool) (?R3 Bool) (?S3 Bool) (?T3 Bool) (?U3 Bool) (?V3 Bool) (?W3 Bool) (?X3 Bool) (?Y3 Bool) (?Z3 Bool) (?A4 Bool) (?B4 Bool) (?C4 Bool) (?D4 Bool) (?E4 Bool) (?F4 Bool) (?G4 Bool) (?H4 Bool) (?I4 Bool) (?J4 Bool) (?K4 Bool) (?L4 Bool) (?M4 Bool) (?N4 Bool) (?O4 Bool) (?P4 Bool) (?Q4 Bool) (?R4 Bool) (?S4 Real) (?T4 Real) (?U4 Real) (?V4 Real) (?W4 Real) (?X4 Real) (?Y4 Real) (?Z4 Real) (?A5 Real) (?B5 Real) (?C5 Real) (?D5 Real) )(let (($x206266 (|cp-rel-bb.i| ?V ?W ?X ?Y ?Z ?A1 ?B1 ?C1 ?D1 ?E1 ?F1 ?G1 ?H1 ?I1 ?J1 ?K1 ?L1 ?M1 ?N1 ?O1 ?P1)))
(let (($x262989 (not ?T3)))
(let (($x466451 (or $x262989 ?U3)))
(let (($x841075 (not ?H4)))
(let (($x817041 (or $x841075 ?I4)))
(let (($x852492 (not ?O4)))
(let (($x601776 (or $x852492 ?P4)))
(let (($x389639 (>= ?O1 ?T)))
(let (($x832232 (<= ?O1 ?T)))
(let (($x107608 (>= ?N1 ?S)))
(let (($x479275 (<= ?N1 ?S)))
(let (($x532766 (>= ?M1 ?R)))
(let (($x262281 (<= ?M1 ?R)))
(let (($x396308 (>= ?L1 ?Q)))
(let (($x331456 (<= ?L1 ?Q)))
(let (($x246059 (>= ?J1 ?O)))
(let (($x67687 (<= ?J1 ?O)))
(let (($x168356 (>= ?I1 ?N)))
(let (($x626207 (<= ?I1 ?N)))
(let (($x135685 (>= ?G1 ?L)))
(let (($x292362 (<= ?G1 ?L)))
(let (($x396601 (>= ?F1 ?K)))
(let (($x101024 (<= ?F1 ?K)))
(let (($x314308 (>= ?E1 ?J)))
(let (($x502302 (<= ?E1 ?J)))
(let (($x381958 (>= ?D1 ?I)))
(let (($x359623 (<= ?D1 ?I)))
(let (($x213415 (>= ?C1 ?H)))
(let (($x348026 (<= ?C1 ?H)))
(let (($x238515 (>= ?B1 ?G)))
(let (($x193869 (<= ?B1 ?G)))
(let (($x45274 (>= ?A1 ?F)))
(let (($x87438 (<= ?A1 ?F)))
(let (($x134023 (>= ?Z ?E)))
(let (($x647958 (<= ?Z ?E)))
(let (($x261213 (>= ?Y ?D)))
(let (($x346635 (<= ?Y ?D)))
(let (($x17384 (>= ?X ?C)))
(let (($x261614 (<= ?X ?C)))
(let (($x351172 (>= ?W ?B)))
(let (($x155310 (<= ?W ?B)))
(let (($x569509 (>= ?V ?S4)))
(let (($x382122 (<= ?V ?S4)))
(let (($x487505 (and ?B2 $x382122 $x569509 $x155310 $x351172 $x261614 $x17384 $x346635 $x261213 $x647958 $x134023 $x87438 $x45274 $x193869 $x238515 $x348026 $x213415 $x359623 $x381958 $x502302 $x314308 $x101024 $x396601 $x292362 $x135685 (<= ?H1 2.0) (>= ?H1 2.0) $x626207 $x168356 $x67687 $x246059 (<= ?K1 456.0) (>= ?K1 456.0) $x331456 $x396308 $x262281 $x532766 $x479275 $x107608 $x832232 $x389639 (<= ?P1 1.0) (>= ?P1 1.0))))
(let (($x637316 (>= ?P1 ?U)))
(let (($x699999 (<= ?P1 ?U)))
(let (($x132926 (>= ?K1 ?P)))
(let (($x478055 (<= ?K1 ?P)))
(let (($x233517 (>= ?H1 ?M)))
(let (($x476266 (<= ?H1 ?M)))
(let (($x456396 (and ?D2 (not ?I2) $x382122 $x569509 $x155310 $x351172 $x261614 $x17384 $x346635 $x261213 $x647958 $x134023 $x87438 $x45274 $x193869 $x238515 $x348026 $x213415 $x359623 $x381958 $x502302 $x314308 $x101024 $x396601 $x292362 $x135685 $x476266 $x233517 $x626207 $x168356 $x67687 $x246059 $x478055 $x132926 $x331456 $x396308 $x262281 $x532766 $x479275 $x107608 (<= ?O1 1.0) (>= ?O1 1.0) $x699999 $x637316)))
(let (($x394108 (and ?K2 (not ?P2) $x382122 $x569509 $x155310 $x351172 $x261614 $x17384 $x346635 $x261213 $x647958 $x134023 $x87438 $x45274 $x193869 $x238515 $x348026 $x213415 $x359623 $x381958 (<= ?E1 1.0) (>= ?E1 1.0) $x101024 $x396601 (<= ?G1 0.0) (>= ?G1 0.0) $x476266 $x233517 $x626207 $x168356 $x67687 $x246059 $x478055 $x132926 $x331456 $x396308 $x262281 $x532766 $x479275 $x107608 $x832232 $x389639 $x699999 $x637316)))
(let (($x215645 (and ?R2 (not ?W2) $x382122 $x569509 $x155310 $x351172 $x261614 $x17384 $x346635 $x261213 $x647958 $x134023 $x87438 $x45274 $x193869 $x238515 $x348026 $x213415 (<= ?D1 1.0) (>= ?D1 1.0) $x502302 $x314308 $x101024 $x396601 $x292362 $x135685 $x476266 $x233517 (<= ?I1 1.0) (>= ?I1 1.0) $x67687 $x246059 $x478055 $x132926 (<= ?L1 123.0) (>= ?L1 123.0) $x262281 $x532766 $x479275 $x107608 $x832232 $x389639 $x699999 $x637316)))
(let (($x408807 (not ?D3)))
(let (($x339810 (and ?Y2 $x408807 $x382122 $x569509 $x155310 $x351172 $x261614 $x17384 $x346635 $x261213 $x647958 $x134023 $x87438 $x45274 $x193869 $x238515 (<= ?C1 1.0) (>= ?C1 1.0) $x359623 $x381958 $x502302 $x314308 $x101024 $x396601 $x292362 $x135685 $x476266 $x233517 $x626207 $x168356 (<= ?J1 2.0) (>= ?J1 2.0) $x478055 $x132926 $x331456 $x396308 (<= ?M1 456.0) (>= ?M1 456.0) $x479275 $x107608 $x832232 $x389639 $x699999 $x637316)))
(let (($x106660 (not ?K3)))
(let (($x244765 (and ?F3 $x106660 $x382122 $x569509 $x155310 $x351172 $x261614 $x17384 $x346635 $x261213 $x647958 $x134023 $x87438 $x45274 (<= ?B1 1.0) (>= ?B1 1.0) $x348026 $x213415 $x359623 $x381958 $x502302 $x314308 $x101024 $x396601 $x292362 $x135685 $x476266 $x233517 $x626207 $x168356 $x67687 $x246059 $x478055 $x132926 $x331456 $x396308 $x262281 $x532766 (<= ?N1 3.0) (>= ?N1 3.0) $x832232 $x389639 $x699999 $x637316)))
(let (($x322844 (and ?M3 (not ?R3) $x382122 $x569509 $x155310 $x351172 $x261614 $x17384 $x346635 $x261213 $x647958 $x134023 (<= ?A1 1.0) (>= ?A1 1.0) $x193869 $x238515 $x348026 $x213415 $x359623 $x381958 $x502302 $x314308 $x101024 $x396601 (<= ?G1 666.0) (>= ?G1 666.0) $x476266 $x233517 $x626207 $x168356 $x67687 $x246059 $x478055 $x132926 $x331456 $x396308 $x262281 $x532766 $x479275 $x107608 $x832232 $x389639 $x699999 $x637316)))
(let (($x99331 (not ?Y3)))
(let (($x354592 (and ?T3 $x99331 $x382122 $x569509 $x155310 $x351172 $x261614 $x17384 $x346635 $x261213 (<= ?Z 1.0) (>= ?Z 1.0) $x87438 $x45274 $x193869 $x238515 $x348026 $x213415 $x359623 $x381958 $x502302 $x314308 $x101024 $x396601 $x292362 $x135685 $x476266 $x233517 $x626207 $x168356 $x67687 $x246059 $x478055 $x132926 $x331456 $x396308 $x262281 $x532766 $x479275 $x107608 $x832232 $x389639 $x699999 $x637316)))
(let (($x523473 (and ?A4 (not ?F4) $x382122 $x569509 $x155310 $x351172 $x261614 $x17384 (<= ?Y 1.0) (>= ?Y 1.0) $x647958 $x134023 $x87438 $x45274 $x193869 $x238515 $x348026 $x213415 $x359623 $x381958 $x502302 $x314308 $x101024 $x396601 $x292362 $x135685 $x476266 $x233517 $x626207 $x168356 (<= ?J1 1.0) (>= ?J1 1.0) $x478055 $x132926 $x331456 $x396308 (<= ?M1 123.0) (>= ?M1 123.0) $x479275 $x107608 $x832232 $x389639 $x699999 $x637316)))
(let (($x640133 (not ?M4)))
(let (($x130596 (and ?H4 $x640133 $x382122 $x569509 $x155310 $x351172 (<= ?X 1.0) (>= ?X 1.0) $x346635 $x261213 $x647958 $x134023 $x87438 $x45274 $x193869 $x238515 $x348026 $x213415 $x359623 $x381958 $x502302 $x314308 (<= ?F1 777.0) (>= ?F1 777.0) $x292362 $x135685 $x476266 $x233517 $x626207 $x168356 $x67687 $x246059 $x478055 $x132926 $x331456 $x396308 $x262281 $x532766 $x479275 $x107608 $x832232 $x389639 $x699999 $x637316)))
(let (($x887868 (not ?R4)))
(let (($x390484 (and ?O4 $x887868 $x382122 $x569509 (<= ?W 1.0) (>= ?W 1.0) $x261614 $x17384 $x346635 $x261213 $x647958 $x134023 $x87438 $x45274 $x193869 $x238515 $x348026 $x213415 $x359623 $x381958 $x502302 $x314308 $x101024 $x396601 $x292362 $x135685 $x476266 $x233517 $x626207 $x168356 (<= ?J1 1.0) (>= ?J1 1.0) $x478055 $x132926 $x331456 $x396308 (<= ?M1 123.0) (>= ?M1 123.0) $x479275 $x107608 $x832232 $x389639 $x699999 $x637316)))
(let (($x898268 (|cp-rel-bb.i| ?A ?B ?C ?D ?E ?F ?G ?H ?I ?J ?K ?L ?M ?N ?O ?P ?Q ?R ?S ?T ?U)))
(let (($x205100 (and $x898268 (= ?Q4 (= ?B 0.0)) (= ?M4 (= ?C5 0.0)) (= ?J4 (= ?C 0.0)) (= ?F4 (= ?B5 0.0)) (= ?C4 (= ?D 0.0)) (= ?Y3 (= ?A5 0.0)) (= ?V3 (= ?E 0.0)) (= ?R3 (= ?Z4 0.0)) (= ?O3 (= ?F 0.0)) (= ?K3 (= ?Y4 0.0)) (= ?H3 (= ?G 0.0)) (= ?D3 (= ?X4 0.0)) (= ?A3 (= ?H 0.0)) (= ?W2 (= ?W4 0.0)) (= ?T2 (= ?I 0.0)) (= ?P2 (= ?V4 0.0)) (= ?M2 (= ?J 0.0)) (= ?I2 (= ?U4 0.0)) (= ?F2 (= ?T 0.0)) (= ?Z1 (= ?T4 0.0)) (= ?W1 (= ?U 0.0)) (= ?S4 (+ 1.0 ?A)) (= ?T1 (not (<= ?A 3.0))) (or $x390484 $x130596 $x523473 $x354592 $x322844 $x244765 $x339810 $x215645 $x394108 $x456396 $x487505) $x601776 (or $x852492 (and ?K4 ?P4 ?Q4)) (or (not ?K4) (and ?L4 (not ?N4)) (and ?N4 (not ?L4))) (or (not ?K4) (and ?H4 ?L4 ?M4) (and ?D4 ?N4 (not ?J4))) $x817041 (or $x841075 (and ?D4 ?I4 ?J4)) (or (not ?D4) (and ?E4 (not ?G4)) (and ?G4 (not ?E4))) (or (not ?D4) (and ?A4 ?E4 ?F4) (and ?W3 ?G4 (not ?C4))) (or (not ?A4) ?B4) (or (not ?A4) (and ?W3 ?B4 ?C4)) (or (not ?W3) (and ?X3 (not ?Z3)) (and ?Z3 (not ?X3))) (or (not ?W3) (and ?T3 ?X3 ?Y3) (and ?P3 ?Z3 (not ?V3))) $x466451 (or $x262989 (and ?P3 ?U3 ?V3)) (or (not ?P3) (and ?Q3 (not ?S3)) (and ?S3 (not ?Q3))) (or (not ?P3) (and ?M3 ?Q3 ?R3) (and ?I3 ?S3 (not ?O3))) (or (not ?M3) ?N3) (or (not ?M3) (and ?I3 ?N3 ?O3)) (or (not ?I3) (and ?J3 (not ?L3)) (and ?L3 (not ?J3))) (or (not ?I3) (and ?F3 ?J3 ?K3) (and ?B3 ?L3 (not ?H3))) (or (not ?F3) ?G3) (or (not ?F3) (and ?B3 ?G3 ?H3)) (or (not ?B3) (and ?C3 (not ?E3)) (and ?E3 (not ?C3))) (or (not ?B3) (and ?Y2 ?C3 ?D3) (and ?U2 ?E3 (not ?A3))) (or (not ?Y2) ?Z2) (or (not ?Y2) (and ?U2 ?Z2 ?A3)) (or (not ?U2) (and ?V2 (not ?X2)) (and ?X2 (not ?V2))) (or (not ?U2) (and ?R2 ?V2 ?W2) (and ?N2 ?X2 (not ?T2))) (or (not ?R2) ?S2) (or (not ?R2) (and ?N2 ?S2 ?T2)) (or (not ?N2) (and ?O2 (not ?Q2)) (and ?Q2 (not ?O2))) (or (not ?N2) (and ?K2 ?O2 ?P2) (and ?G2 ?Q2 (not ?M2))) (or (not ?K2) ?L2) (or (not ?K2) (and ?G2 ?L2 ?M2)) (or (not ?G2) (and ?H2 (not ?J2)) (and ?J2 (not ?H2))) (or (not ?G2) (and ?D2 ?H2 ?I2) (and ?X1 ?J2 (not ?F2))) (or (not ?D2) ?E2) (or (not ?D2) (and ?X1 ?E2 ?F2)) (or (not ?B2) ?C2) (or (not ?B2) (and ?U1 ?C2 (not ?Z1))) (or (not ?X1) (and ?Y1 (not ?A2)) (and ?A2 (not ?Y1))) (or (not ?X1) (and ?U1 ?Y1 ?Z1) (and ?Q1 ?A2 (not ?W1))) (or (not ?U1) ?V1) (or (not ?U1) (and ?Q1 ?V1 ?W1)) (or (not ?Q1) ?S1) (or (not ?Q1) (and ?R1 ?S1 (not ?T1))) (= ?R4 (= ?D5 0.0)))))
(=> $x205100 $x206266)))))))))))))))))))))))))))))))))))))))))))))))))))))))))))))))))))))
)
(assert (forall ((?A Real) (?B Real) (?C Real) (?D Real) (?E Real) (?F Real) (?G Real) (?H Real) (?I Real) (?J Real) (?K Real) (?L Real) (?M Real) (?N Real) (?O Real) (?P Real) (?Q Real) (?R Real) (?S Real) (?T Real) (?U Real) (?V Bool) (?W Bool) (?X Bool) (?Y Bool) (?Z Bool) (?A1 Bool) (?B1 Bool) (?C1 Bool) (?D1 Bool) (?E1 Bool) (?F1 Bool) (?G1 Bool) (?H1 Bool) (?I1 Bool) (?J1 Bool) (?K1 Bool) (?L1 Bool) (?M1 Bool) (?N1 Bool) (?O1 Bool) (?P1 Bool) (?Q1 Bool) (?R1 Bool) (?S1 Bool) (?T1 Bool) (?U1 Bool) (?V1 Bool) (?W1 Bool) (?X1 Bool) (?Y1 Bool) (?Z1 Bool) (?A2 Bool) (?B2 Bool) (?C2 Bool) (?D2 Bool) (?E2 Bool) (?F2 Bool) (?G2 Bool) (?H2 Bool) (?I2 Bool) (?J2 Bool) (?K2 Bool) (?L2 Bool) (?M2 Bool) (?N2 Bool) (?O2 Bool) (?P2 Bool) (?Q2 Bool) (?R2 Bool) (?S2 Bool) (?T2 Bool) (?U2 Bool) (?V2 Bool) (?W2 Bool) (?X2 Bool) (?Y2 Bool) (?Z2 Bool) (?A3 Bool) (?B3 Bool) (?C3 Bool) (?D3 Bool) (?E3 Bool) (?F3 Bool) (?G3 Bool) (?H3 Bool) (?I3 Bool) (?J3 Bool) (?K3 Bool) (?L3 Bool) (?M3 Bool) (?N3 Bool) (?O3 Bool) (?P3 Bool) (?Q3 Bool) (?R3 Bool) (?S3 Bool) (?T3 Bool) (?U3 Bool) (?V3 Real) (?W3 Real) (?X3 Real) (?Y3 Real) (?Z3 Real) (?A4 Real) (?B4 Real) (?C4 Real) (?D4 Real) (?E4 Real) (?F4 Real) (?G4 Real) (?H4 Real) (?I4 Real) (?J4 Bool) (?K4 Bool) (?L4 Bool) (?M4 Bool) (?N4 Bool) (?O4 Bool) (?P4 Bool) (?Q4 Bool) (?R4 Bool) (?S4 Bool) (?T4 Bool) (?U4 Bool) (?V4 Bool) (?W4 Bool) (?X4 Bool) (?Y4 Bool) (?Z4 Bool) (?A5 Bool) (?B5 Bool) (?C5 Bool) (?D5 Bool) (?E5 Bool) (?F5 Bool) (?G5 Bool) (?H5 Bool) (?I5 Bool) (?J5 Bool) (?K5 Bool) (?L5 Real) (?M5 Bool) (?N5 Bool) (?O5 Bool) (?P5 Bool) (?Q5 Bool) (?R5 Bool) (?S5 Bool) (?T5 Bool) (?U5 Bool) (?V5 Bool) (?W5 Real) (?X5 Bool) (?Y5 Bool) (?Z5 Bool) (?A6 Bool) (?B6 Bool) (?C6 Bool) (?D6 Bool) (?E6 Bool) (?F6 Real) (?G6 Bool) (?H6 Bool) (?I6 Bool) (?J6 Bool) (?K6 Bool) (?L6 Bool) (?M6 Bool) (?N6 Real) )(let (($x381116 (|cp-rel-__UFO__0| ?A ?B ?C ?D ?E ?F ?G ?H ?I ?J ?K ?L ?M ?N ?O ?P ?Q ?R ?S ?T ?U ?H4 ?I4)))
(let (($x213813 (not ?J4)))
(let (($x838925 (or $x213813 (and ?R3 ?K4 ?U3) (and ?N3 ?L4 (not ?T3)) (and ?W ?M4 ?Y))))
(let (($x924953 (or $x213813 (and ?K4 (not ?L4) (not ?M4)) (and ?L4 (not ?K4) (not ?M4)) (and ?M4 (not ?K4) (not ?L4)))))
(let (($x106660 (not ?U4)))
(let (($x597764 (or $x106660 (and ?Q4 ?V4 (<= ?I4 0.0) (>= ?I4 0.0)) (and ?N4 ?W4 ?S4 (<= ?I4 1.0) (>= ?I4 1.0)))))
(let (($x262989 (not ?D5)))
(let (($x466451 (or $x262989 ?E5)))
(let (($x99331 (not ?I5)))
(let (($x211515 (or $x99331 (and ?D5 ?J5 ?K5 (<= ?L5 ?P) (>= ?L5 ?P)) (and ?G5 ?M5 ?N5 (<= ?L5 ?R) (>= ?L5 ?R)))))
(let (($x841075 (not ?R5)))
(let (($x817041 (or $x841075 ?S5)))
(let (($x445214 (not ?U5)))
(let (($x532827 (or $x445214 (and ?R5 ?V5 (<= ?W5 1.0) (>= ?W5 1.0)) (and ?O5 ?X5 ?T5 (<= ?W5 ?I4) (>= ?W5 ?I4)) (and ?I5 ?Y5 ?Q5 (<= ?W5 ?I4) (>= ?W5 ?I4)) (and ?D5 ?Z5 (not ?K5) (<= ?W5 ?I4) (>= ?W5 ?I4)) (and ?G5 ?A6 (not ?N5) (<= ?W5 ?I4) (>= ?W5 ?I4)))))
(let (($x645298 (or $x445214 (and ?V5 (not ?X5) (not ?Y5) (not ?Z5) (not ?A6)) (and ?X5 (not ?V5) (not ?Y5) (not ?Z5) (not ?A6)) (and ?Y5 (not ?V5) (not ?X5) (not ?Z5) (not ?A6)) (and ?Z5 (not ?V5) (not ?X5) (not ?Y5) (not ?A6)) (and ?A6 (not ?V5) (not ?X5) (not ?Y5) (not ?Z5)))))
(let (($x420616 (|cp-rel-bb.i| ?A ?B ?C ?D ?E ?F ?G ?H ?I ?J ?K ?L ?M ?N ?O ?P ?Q ?R ?S ?T ?U)))
(let (($x346270 (and $x420616 (= ?N6 (ite ?M6 ?S 0.0)) (= ?M6 (= ?S 2.0)) (= ?T5 (or ?L6 ?K6)) (= ?L6 (not (= ?L5 ?F6))) (= ?K6 (= ?F6 0.0)) (= ?Q5 (= ?L5 0.0)) (= ?N5 (and ?I6 ?J6)) (= ?J6 (= ?O 2.0)) (= ?I6 (= ?S 3.0)) (= ?K5 (and ?G6 ?H6)) (= ?H6 (= ?M 2.0)) (= ?G6 (= ?S 1.0)) (= ?F5 (not (<= 2.0 ?S))) (= ?F6 (ite ?C5 ?K ?L)) (= ?C5 (= ?L 0.0)) (= ?Z4 (= ?S 0.0)) (= ?S4 (= ?H4 ?K)) (= ?P4 (= ?H4 0.0)) (= ?H4 (ite ?E6 ?Q 0.0)) (= ?E6 (= ?N 1.0)) (= ?U3 (= ?G4 0.0)) (= ?T3 (= ?B 0.0)) (= ?P3 (= ?F4 0.0)) (= ?M3 (= ?C 0.0)) (= ?I3 (= ?E4 0.0)) (= ?F3 (= ?D 0.0)) (= ?B3 (= ?D4 0.0)) (= ?Y2 (= ?E 0.0)) (= ?U2 (= ?C4 0.0)) (= ?R2 (= ?F 0.0)) (= ?N2 (= ?B4 0.0)) (= ?K2 (= ?G 0.0)) (= ?G2 (= ?A4 0.0)) (= ?D2 (= ?H 0.0)) (= ?Z1 (= ?Z3 0.0)) (= ?W1 (= ?I 0.0)) (= ?S1 (= ?Y3 0.0)) (= ?P1 (= ?J 0.0)) (= ?L1 (= ?X3 0.0)) (= ?I1 (= ?T 0.0)) (= ?E1 (= ?W3 0.0)) (= ?B1 (= ?U 0.0)) (= ?V3 (+ 1.0 ?A)) (= ?Y (not (<= ?A 3.0))) (or ?B6 (and ?U5 ?D6) (and ?U4 ?Z4)) (or (not ?B6) ?C6) (or (not ?B6) (and ?U5 ?C6 (not ?D6))) $x645298 $x532827 $x817041 (or $x841075 (and ?O5 ?S5 (not ?T5))) (or (not ?O5) ?P5) (or (not ?O5) (and ?I5 ?P5 (not ?Q5))) (or $x99331 (and ?J5 (not ?M5)) (and ?M5 (not ?J5))) $x211515 (or (not ?G5) ?H5) (or (not ?G5) (and ?A5 ?H5 (not ?F5))) $x466451 (or $x262989 (and ?A5 ?E5 ?F5)) (or (not ?A5) ?B5) (or (not ?A5) (and ?X4 ?B5 (not ?C5))) (or (not ?X4) ?Y4) (or (not ?X4) (and ?U4 ?Y4 (not ?Z4))) (or $x106660 (and ?V4 (not ?W4)) (and ?W4 (not ?V4))) $x597764 (or (not ?Q4) (and ?R4 (not ?T4)) (and ?T4 (not ?R4))) (or (not ?Q4) (and ?N4 ?R4 (not ?S4)) (and ?J4 ?T4 ?P4)) (or (not ?N4) ?O4) (or (not ?N4) (and ?J4 ?O4 (not ?P4))) $x924953 $x838925 (or (not ?R3) ?S3) (or (not ?R3) (and ?N3 ?S3 ?T3)) (or (not ?N3) (and ?O3 (not ?Q3)) (and ?Q3 (not ?O3))) (or (not ?N3) (and ?K3 ?O3 ?P3) (and ?G3 ?Q3 (not ?M3))) (or (not ?K3) ?L3) (or (not ?K3) (and ?G3 ?L3 ?M3)) (or (not ?G3) (and ?H3 (not ?J3)) (and ?J3 (not ?H3))) (or (not ?G3) (and ?D3 ?H3 ?I3) (and ?Z2 ?J3 (not ?F3))) (or (not ?D3) ?E3) (or (not ?D3) (and ?Z2 ?E3 ?F3)) (or (not ?Z2) (and ?A3 (not ?C3)) (and ?C3 (not ?A3))) (or (not ?Z2) (and ?W2 ?A3 ?B3) (and ?S2 ?C3 (not ?Y2))) (or (not ?W2) ?X2) (or (not ?W2) (and ?S2 ?X2 ?Y2)) (or (not ?S2) (and ?T2 (not ?V2)) (and ?V2 (not ?T2))) (or (not ?S2) (and ?P2 ?T2 ?U2) (and ?L2 ?V2 (not ?R2))) (or (not ?P2) ?Q2) (or (not ?P2) (and ?L2 ?Q2 ?R2)) (or (not ?L2) (and ?M2 (not ?O2)) (and ?O2 (not ?M2))) (or (not ?L2) (and ?I2 ?M2 ?N2) (and ?E2 ?O2 (not ?K2))) (or (not ?I2) ?J2) (or (not ?I2) (and ?E2 ?J2 ?K2)) (or (not ?E2) (and ?F2 (not ?H2)) (and ?H2 (not ?F2))) (or (not ?E2) (and ?B2 ?F2 ?G2) (and ?X1 ?H2 (not ?D2))) (or (not ?B2) ?C2) (or (not ?B2) (and ?X1 ?C2 ?D2)) (or (not ?X1) (and ?Y1 (not ?A2)) (and ?A2 (not ?Y1))) (or (not ?X1) (and ?U1 ?Y1 ?Z1) (and ?Q1 ?A2 (not ?W1))) (or (not ?U1) ?V1) (or (not ?U1) (and ?Q1 ?V1 ?W1)) (or (not ?Q1) (and ?R1 (not ?T1)) (and ?T1 (not ?R1))) (or (not ?Q1) (and ?N1 ?R1 ?S1) (and ?J1 ?T1 (not ?P1))) (or (not ?N1) ?O1) (or (not ?N1) (and ?J1 ?O1 ?P1)) (or (not ?J1) (and ?K1 (not ?M1)) (and ?M1 (not ?K1))) (or (not ?J1) (and ?G1 ?K1 ?L1) (and ?C1 ?M1 (not ?I1))) (or (not ?G1) ?H1) (or (not ?G1) (and ?C1 ?H1 ?I1)) (or (not ?C1) (and ?D1 (not ?F1)) (and ?F1 (not ?D1))) (or (not ?C1) (and ?Z ?D1 ?E1) (and ?V ?F1 (not ?B1))) (or (not ?Z) ?A1) (or (not ?Z) (and ?V ?A1 ?B1)) (or (not ?V) ?X) (or (not ?V) (and ?W ?X (not ?Y))) (= ?D6 (= ?N6 0.0)))))
(=> $x346270 $x381116)))))))))))))))))))
)
(assert (forall ((?A Real) (?B Real) (?C Real) (?D Real) (?E Real) (?F Real) (?G Real) (?H Real) (?I Real) (?J Real) (?K Real) (?L Real) (?M Real) (?N Real) (?O Real) (?P Real) (?Q Real) (?R Real) (?S Real) (?T Real) (?U Real) (?V Real) (?W Real) (?X Bool) )(let (($x625355 (|cp-rel-__UFO__0| ?C ?D ?E ?F ?G ?H ?I ?J ?K ?L ?M ?N ?O ?P ?Q ?R ?S ?T ?U ?V ?W ?A ?B)))
(=> (and $x625355 (= ?X true)) $x625355)))
)
(assert (forall ((?A Real) (?B Real) (?C Real) (?D Real) (?E Real) (?F Real) (?G Real) (?H Real) (?I Real) (?J Real) (?K Real) (?L Real) (?M Real) (?N Real) (?O Real) (?P Real) (?Q Real) (?R Real) (?S Real) (?T Real) (?U Real) (?V Bool) (?W Bool) (?X Bool) (?Y Bool) (?Z Bool) (?A1 Bool) (?B1 Bool) (?C1 Bool) (?D1 Bool) (?E1 Bool) (?F1 Bool) (?G1 Bool) (?H1 Bool) (?I1 Bool) (?J1 Bool) (?K1 Bool) (?L1 Bool) (?M1 Bool) (?N1 Bool) (?O1 Bool) (?P1 Bool) (?Q1 Bool) (?R1 Bool) (?S1 Bool) (?T1 Bool) (?U1 Bool) (?V1 Bool) (?W1 Bool) (?X1 Bool) (?Y1 Bool) (?Z1 Bool) (?A2 Bool) (?B2 Bool) (?C2 Bool) (?D2 Bool) (?E2 Bool) (?F2 Bool) (?G2 Bool) (?H2 Bool) (?I2 Bool) (?J2 Bool) (?K2 Bool) (?L2 Bool) (?M2 Bool) (?N2 Bool) (?O2 Bool) (?P2 Bool) (?Q2 Bool) (?R2 Bool) (?S2 Bool) (?T2 Bool) (?U2 Bool) (?V2 Bool) (?W2 Bool) (?X2 Bool) (?Y2 Bool) (?Z2 Bool) (?A3 Bool) (?B3 Bool) (?C3 Bool) (?D3 Bool) (?E3 Bool) (?F3 Bool) (?G3 Bool) (?H3 Bool) (?I3 Bool) (?J3 Bool) (?K3 Bool) (?L3 Bool) (?M3 Bool) (?N3 Bool) (?O3 Bool) (?P3 Bool) (?Q3 Bool) (?R3 Bool) (?S3 Bool) (?T3 Bool) (?U3 Bool) (?V3 Real) (?W3 Real) (?X3 Real) (?Y3 Real) (?Z3 Real) (?A4 Real) (?B4 Real) (?C4 Real) (?D4 Real) (?E4 Real) (?F4 Real) (?G4 Real) (?H4 Real) (?I4 Real) (?J4 Bool) (?K4 Bool) (?L4 Bool) (?M4 Bool) (?N4 Bool) (?O4 Bool) (?P4 Bool) (?Q4 Bool) (?R4 Bool) (?S4 Bool) (?T4 Bool) (?U4 Bool) (?V4 Bool) (?W4 Bool) (?X4 Bool) (?Y4 Bool) (?Z4 Bool) (?A5 Bool) (?B5 Bool) (?C5 Real) )(let (($x445214 (not ?J4)))
(let (($x367383 (or $x445214 (and ?R3 ?K4 ?U3) (and ?N3 ?L4 (not ?T3)) (and ?W ?M4 ?Y))))
(let (($x285494 (or $x445214 (and ?K4 (not ?L4) (not ?M4)) (and ?L4 (not ?K4) (not ?M4)) (and ?M4 (not ?K4) (not ?L4)))))
(let (($x852492 (not ?N4)))
(let (($x601776 (or $x852492 ?O4)))
(let (($x507435 (or (not ?U4) (and ?Q4 ?V4 (<= ?I4 0.0) (>= ?I4 0.0)) (and ?N4 ?W4 ?S4 (<= ?I4 1.0) (>= ?I4 1.0)))))
(let (($x322232 (|cp-rel-bb.i| ?A ?B ?C ?D ?E ?F ?G ?H ?I ?J ?K ?L ?M ?N ?O ?P ?Q ?R ?S ?T ?U)))
(let (($x157804 (and $x322232 (= ?A5 (= ?L 0.0)) (= ?Z4 (= ?S 0.0)) (= ?S4 (= ?H4 ?K)) (= ?P4 (= ?H4 0.0)) (= ?H4 (ite ?B5 ?Q 0.0)) (= ?B5 (= ?N 1.0)) (= ?U3 (= ?G4 0.0)) (= ?T3 (= ?B 0.0)) (= ?P3 (= ?F4 0.0)) (= ?M3 (= ?C 0.0)) (= ?I3 (= ?E4 0.0)) (= ?F3 (= ?D 0.0)) (= ?B3 (= ?D4 0.0)) (= ?Y2 (= ?E 0.0)) (= ?U2 (= ?C4 0.0)) (= ?R2 (= ?F 0.0)) (= ?N2 (= ?B4 0.0)) (= ?K2 (= ?G 0.0)) (= ?G2 (= ?A4 0.0)) (= ?D2 (= ?H 0.0)) (= ?Z1 (= ?Z3 0.0)) (= ?W1 (= ?I 0.0)) (= ?S1 (= ?Y3 0.0)) (= ?P1 (= ?J 0.0)) (= ?L1 (= ?X3 0.0)) (= ?I1 (= ?T 0.0)) (= ?E1 (= ?W3 0.0)) (= ?B1 (= ?U 0.0)) (= ?V3 (+ 1.0 ?A)) (= ?Y (not (<= ?A 3.0))) (= ?A5 true) (= ?X4 true) (or (not ?X4) ?Y4) (or (not ?X4) (and ?U4 ?Y4 (not ?Z4))) (or (not ?U4) (and ?V4 (not ?W4)) (and ?W4 (not ?V4))) $x507435 (or (not ?Q4) (and ?R4 (not ?T4)) (and ?T4 (not ?R4))) (or (not ?Q4) (and ?N4 ?R4 (not ?S4)) (and ?J4 ?T4 ?P4)) $x601776 (or $x852492 (and ?J4 ?O4 (not ?P4))) $x285494 $x367383 (or (not ?R3) ?S3) (or (not ?R3) (and ?N3 ?S3 ?T3)) (or (not ?N3) (and ?O3 (not ?Q3)) (and ?Q3 (not ?O3))) (or (not ?N3) (and ?K3 ?O3 ?P3) (and ?G3 ?Q3 (not ?M3))) (or (not ?K3) ?L3) (or (not ?K3) (and ?G3 ?L3 ?M3)) (or (not ?G3) (and ?H3 (not ?J3)) (and ?J3 (not ?H3))) (or (not ?G3) (and ?D3 ?H3 ?I3) (and ?Z2 ?J3 (not ?F3))) (or (not ?D3) ?E3) (or (not ?D3) (and ?Z2 ?E3 ?F3)) (or (not ?Z2) (and ?A3 (not ?C3)) (and ?C3 (not ?A3))) (or (not ?Z2) (and ?W2 ?A3 ?B3) (and ?S2 ?C3 (not ?Y2))) (or (not ?W2) ?X2) (or (not ?W2) (and ?S2 ?X2 ?Y2)) (or (not ?S2) (and ?T2 (not ?V2)) (and ?V2 (not ?T2))) (or (not ?S2) (and ?P2 ?T2 ?U2) (and ?L2 ?V2 (not ?R2))) (or (not ?P2) ?Q2) (or (not ?P2) (and ?L2 ?Q2 ?R2)) (or (not ?L2) (and ?M2 (not ?O2)) (and ?O2 (not ?M2))) (or (not ?L2) (and ?I2 ?M2 ?N2) (and ?E2 ?O2 (not ?K2))) (or (not ?I2) ?J2) (or (not ?I2) (and ?E2 ?J2 ?K2)) (or (not ?E2) (and ?F2 (not ?H2)) (and ?H2 (not ?F2))) (or (not ?E2) (and ?B2 ?F2 ?G2) (and ?X1 ?H2 (not ?D2))) (or (not ?B2) ?C2) (or (not ?B2) (and ?X1 ?C2 ?D2)) (or (not ?X1) (and ?Y1 (not ?A2)) (and ?A2 (not ?Y1))) (or (not ?X1) (and ?U1 ?Y1 ?Z1) (and ?Q1 ?A2 (not ?W1))) (or (not ?U1) ?V1) (or (not ?U1) (and ?Q1 ?V1 ?W1)) (or (not ?Q1) (and ?R1 (not ?T1)) (and ?T1 (not ?R1))) (or (not ?Q1) (and ?N1 ?R1 ?S1) (and ?J1 ?T1 (not ?P1))) (or (not ?N1) ?O1) (or (not ?N1) (and ?J1 ?O1 ?P1)) (or (not ?J1) (and ?K1 (not ?M1)) (and ?M1 (not ?K1))) (or (not ?J1) (and ?G1 ?K1 ?L1) (and ?C1 ?M1 (not ?I1))) (or (not ?G1) ?H1) (or (not ?G1) (and ?C1 ?H1 ?I1)) (or (not ?C1) (and ?D1 (not ?F1)) (and ?F1 (not ?D1))) (or (not ?C1) (and ?Z ?D1 ?E1) (and ?V ?F1 (not ?B1))) (or (not ?Z) ?A1) (or (not ?Z) (and ?V ?A1 ?B1)) (or (not ?V) ?X) (or (not ?V) (and ?W ?X (not ?Y))) (= ?C5 (ite ?A5 ?K ?L)))))
(=> $x157804 |cp-rel-bb1.i.i.i.i52.i.i|))))))))))
)
(assert (not cp-rel-bb1.i.i.i.i52.i.i))
(check-sat)
